c FILE /home/rafael/Documents/HappySet/MIHS/inputs/happygen/output/graph_scale_free_k10_p0.4_v50_20241127_082517.txt
c SOURCE This is a scale-free graph formed for the happy graph colouring problem.
c DESCRIPTION It was generated using the problem generator of Rhyd Lewis
c
c GRAPH STATS
c Seed                             = 1504930217
c Number of Nodes                  = 50
c Number of colours k              = 10
c Number of pre-assignments        = 20
c Number of links per new node     = 5
c Density                          = 0.191837
c 
c The degrees of nodes 1 to 50, respectively, are as follows 
c [26, 22, 20, 20, 17, 15, 15, 13, 13, 13, 13, 13, 11, 11, 11, 10, 10, 10, 10, 9, 9, 9, 9, 8, 8, 8, 
c  8, 8, 7, 7, 7, 7, 6, 6, 6, 5, 5, 5, 5, 5, 5, 5, 5, 5, 5, 5, 5, 5, 5, 5] 
c  
p edge 50 235 10
e 1 2
e 1 3
e 1 4
e 1 5
e 1 6
e 1 7
e 1 8
e 1 9
e 1 10
e 1 12
e 1 14
e 1 16
e 1 17
e 1 18
e 1 20
e 1 25
e 1 26
e 1 29
e 1 31
e 1 33
e 1 36
e 1 40
e 1 41
e 1 42
e 1 46
e 1 47
e 2 3
e 2 4
e 2 5
e 2 6
e 2 8
e 2 9
e 2 10
e 2 11
e 2 13
e 2 14
e 2 15
e 2 16
e 2 17
e 2 21
e 2 22
e 2 23
e 2 24
e 2 30
e 2 31
e 2 40
e 2 45
e 3 4
e 3 5
e 3 6
e 3 7
e 3 8
e 3 9
e 3 10
e 3 13
e 3 17
e 3 19
e 3 20
e 3 22
e 3 24
e 3 32
e 3 34
e 3 38
e 3 39
e 3 46
e 4 5
e 4 6
e 4 9
e 4 12
e 4 13
e 4 14
e 4 15
e 4 16
e 4 17
e 4 19
e 4 20
e 4 24
e 4 27
e 4 29
e 4 38
e 4 46
e 4 48
e 5 6
e 5 7
e 5 8
e 5 9
e 5 11
e 5 13
e 5 14
e 5 16
e 5 18
e 5 20
e 5 27
e 5 29
e 5 31
e 6 7
e 6 8
e 6 12
e 6 18
e 6 19
e 6 22
e 6 25
e 6 29
e 6 30
e 6 47
e 7 8
e 7 11
e 7 12
e 7 13
e 7 16
e 7 18
e 7 21
e 7 23
e 7 28
e 7 33
e 7 44
e 8 10
e 8 11
e 8 18
e 8 20
e 8 28
e 8 30
e 8 37
e 9 21
e 9 25
e 9 33
e 9 34
e 9 36
e 9 40
e 9 43
e 9 49
e 10 12
e 10 13
e 10 17
e 10 23
e 10 33
e 10 37
e 10 38
e 10 42
e 10 46
e 11 15
e 11 18
e 11 24
e 11 32
e 11 34
e 11 36
e 11 42
e 11 46
e 11 47
e 12 26
e 12 34
e 12 36
e 12 39
e 12 40
e 12 48
e 12 49
e 12 50
e 13 15
e 13 22
e 13 28
e 13 43
e 13 47
e 14 16
e 14 21
e 14 23
e 14 26
e 14 37
e 14 42
e 14 45
e 15 18
e 15 23
e 15 32
e 15 35
e 15 40
e 15 41
e 15 42
e 16 19
e 16 31
e 16 36
e 16 50
e 17 22
e 17 26
e 17 38
e 17 39
e 17 50
e 18 21
e 18 24
e 18 35
e 19 24
e 19 27
e 19 29
e 19 39
e 19 43
e 19 44
e 20 31
e 20 33
e 20 41
e 20 48
e 21 30
e 21 37
e 21 39
e 21 41
e 22 26
e 22 30
e 22 44
e 22 49
e 23 41
e 23 43
e 23 44
e 23 49
e 24 25
e 24 37
e 25 27
e 25 28
e 25 29
e 25 38
e 26 27
e 26 45
e 26 48
e 27 28
e 27 35
e 27 50
e 28 43
e 28 48
e 28 49
e 29 34
e 30 35
e 30 44
e 31 32
e 31 50
e 32 33
e 32 35
e 32 47
e 34 45
e 35 45
n 4 1
n 11 5
n 21 2
n 25 9
n 26 3
n 31 7
n 33 6
n 35 3
n 36 5
n 37 2
n 39 2
n 40 4
n 41 2
n 42 5
n 43 8
n 44 5
n 45 3
n 47 5
n 49 10
n 50 7
